x04m01e2t24tp2_04
4244
4244
4244
4244
4244
4244
4244
4419
4419
4558
4558
4558
4558
4558
4558
4558
4558
4558
4558
4558
4558
4558
4558
4558
4569
4569
4677
4677
4677
4677
4677
4677
4677
4704
4704
4704
4704
4704
4704
4704
4704
4704
4704
4717
4761
4761
4761
4766
4769
4769
4769
4769
4769
4769
4776
4808
4808
4808
4808
4808
4808
4808
4808
4808
4808
4808
4808
4817
4817
4817
4858
4858
4858
4858
4858
4858
4858
4858
4858
4858
4858
4858
4858
4858
4858
4858
4903
4903
4903
4903
4903
4903
4903
4903
4903
4903
4903
4940
4940
4940
4940
4940
4940
4940
4940
4940
4940
4940
4940
4940
4940
4940
4940
4940
4940
4940
4940
4940
4940
4940
4940
4940
4940
4940
4940
4940
4940
4940
4940
4940
4940
4940
4940
4940
4940
4940
4940
4940
4940
4940
4940
4940
4940
4940
4940
4940
4940
4940
4940
4940
4940
4940
4940
4940
4940
4940
4940
4940
4940
4940
4940
4940
4940
4940
4940
4940
4959
4959
4959
4959
4959
4959
4959
4959
4980
4980
4980
4980
4980
4980
4980
4980
4980
4980
4980
4980
4980
4980
4980
4980
4980
4980
4980
4980
4980
4980
4980
4980
4980
4980
4980
4980
4980
4980
4980
4980
4980
4980
4980
4980
4980
4980
4980
4980
4980
4980
4980
4980
4980
4980
4980
4980
4980
4980
4980
4980
4980
4980
4980
4980
4980
4980
4980
4980
4980
4980
4980
4980
4980
4980
4980
4980
4980
4980
4980
4980
4980
4980
4980
4980
4980
4980
4980
4980
4980
4980
4980
4980
4980
4980
4980
4980
4980
4980
4980
4980
4980
4980
4980
4980
4980
4980
4980
4980
4980
4980
4980
4980
4980
4980
4980
4980
4980
4980
4980
4980
4980
4980
4980
4980
4980
4980
4980
4980
4980
4980
4980
4980
4980
4980
4980
4980
4980
4980
4980
4980
4980
4980
4980
4980
4980
4980
4980
4980
4980
4980
4980
4980
4980
4980
4980
4980
4980
4980
4980
4980
4980
4980
4980
4980
4980
4980
4980
4980
4980
4995
4995
4995
4995
4995
4995
4995
4995
4995
4995
4995
4995
4995
4995
4995
4995
4995
4995
4995
4995
4995
4995
4995
4995
4995
4995
4995
4995
4995
4995
4995
4995
4995
4995
4995
4995
4995
4995
4995
4995
4995
4995
4995
4995
4995
4995
4995
4995
4995
4995
4995
4995
4995
4995
4995
4995
4995
4995
4995
4995
4995
4995
4995
4995
4995
4995
4995
4995
4995
4995
4995
4995
4995
4995
4995
4995
4995
4995
4995
4995
4995
4995
4995
4995
4995
4995
4995
4995
4995
4995
4995
4995
4995
4995
4995
4995
4995
4995
4995
4995
4995
4995
4995
4995
4995
4995
4995
4995
4995
4995
4995
4995
4995
4995
4995
4995
4995
4995
4995
4995
4995
4995
4995
4995
4995
4995
4995
4995
4995
4995
4995
4995
4995
4995
4995
4995
4995
4995
4995
4995
4995
4995
4995
4995
4995
4995
4995
4995
4995
4995
4995
4995
4995
4995
4995
4995
4995
4995
4995
4995
4995
4995
4995
4995
4995
4995
4995
4995
4995
4995
4995
4995
4995
4995
4995
4995
4995
4995
4995
4995
4995
4995
4995
4995
4995
4995
4995
4995
4995
4995
4995
4995
4995
4995
4995
4995
4995
4995
4995
4995
4995
4995
4995
4995
4995
4995
4995
4995
4995
4995
4995
4995
4995
4995
4995
4995
4995
4995
4995
4995
4995
4995
4995
4995
4995
4995
4995
4995
4995
4995
4995
4995
4995
4995
4995
4995
4995
4995
4995
4995
4995
4995
4995
4995
4995
4995
4995
4995
4995
4995
4995
4995
4995
4995
4995
4995
4995
4995
4995
4995
4995
4995
4995
4995
4995
4995
4995
4995
4995
4995
4995
4995
4995
4995
4995
4995
4995
4995
4995
4995
4995
4995
4995
4995
4995
4995
4995
4995
4995
4995
4995
4995
4995
4995
4995
4995
4995
4995
4995
4995
4995
4995
4995
4995
4995
4995
4995
4995
4995
4995
4995
4995
4995
4995
4995
4995
4995
4995
4995
4995
4995
4995
4995
4995
4995
4995
4995
4995
4995
4995
4995
4995
4995
4995
4995
4995
4995
4995
4995
4995
4995
4995
4995
4995
4995
4995
4995
4995
4995
4995
4995
4995
4995
4995
4995
4995
4995
4995
4995
4995
4995
4995
4995
4995
4995
4995
4995
4995
4995
4995
4995
4995
4995
4995
4995
4995
4995
4995
4995
4995
4995
4995
4995
4995
4995
4995
4995
4995
4995
4995
4995
4995
4995
4995
4995
4995
4995
4995
4995
4995
4995
4995
4995
4995
4995
4995
4995
4995
4995
4995
4995
4995
4995
4995
4995
4995
4995
4995
4995
4995
4995
4995
4995
4995
4995
4995
4995
4995
4995
4995
4995
4995
4995
4995
4995
4995
4995
4995
4995
4995
4995
4995
4995
4995
4995
4995
4995
4995
4995
4995
4995
4995
4995
4995
4995
4995
4995
4995
4995
4995
4995
4995
4995
4995
4995
4995
4995
4995
4995
4995
4995
4995
4995
4995
4995
4995
4995
4995
4995
4995
4995
4995
4995
4995
4995
4995
4995
4995
4995
4995
4995
4995
4995
4995
4995
4995
4995
4995
4995
4995
4995
4995
4995
4995
4995
4995
4995
4995
4995
4995
4995
4995
4995
4995
4995
4995
4995
4995
4995
4995
4995
4995
4995
4995
4995
4995
4995
4995
4995
4995
4995
4995
4995
4995
4995
4995
4995
4995
4995
4995
4995
4995
4995
4995
4995
4995
4995
4995
4995
4995
4995
4995
4995
4995
4995
4995
4995
4995
4995
4995
4995
4995
4995
4995
4995
4995
4995
4995
4995
4995
4995
4995
4995
4995
4995
4995
4995
4995
4995
4995
4995
4995
4995
4995
4995
4995
4995
4995
4995
4995
4995
4995
4995
4995
4995
4995
4995
4995
4995
4995
4995
4995
4995
4995
4995
4995
4995
4995
4995
4995
4995
4995
4995
4995
4995
4995
4995
4995
4995
4995
4995
4995
4995
4995
4995
4995
4995
4995
4995
4995
4995
4995
4995
4995
4995
4995
4995
4995
4995
4995
4995
4995
4995
4995
4995
4995
4995
4995
4995
4995
4995
4995
4995
4995
4995
4995
4995
4995
4995
4995
4995
4995
4995
4995
4995
